32	10
16	20	19	18	16	20	19	15	15	12
0	0	0	0	0	0	0	0	0	0	0	2	2	5
10	0	0	19	9	0	0	0	0	0	0	1	3
9	0	20	0	0	0	0	0	9	0	0	1	4
4	0	0	0	0	0	0	19	0	15	0	2	6	9
10	12	0	0	0	0	0	0	1	0	0	2	6	9
2	0	16	0	0	0	0	0	0	15	0	1	7
10	0	0	7	0	0	0	0	0	14	0	1	8
6	0	10	0	0	0	0	8	0	0	0	1	10
1	16	0	0	0	0	0	0	0	0	6	1	10
1	0	0	0	11	0	0	0	0	9	0	2	11	19
10	0	0	0	0	8	12	0	0	0	0	2	12	25
1	0	0	0	18	16	0	0	0	0	0	2	13	31
2	0	17	0	18	0	0	0	0	0	0	1	14
2	0	0	0	0	0	0	19	0	0	9	1	15
1	0	0	16	0	0	0	0	0	0	3	1	16
5	0	0	0	7	0	0	6	0	0	0	1	17
1	0	0	18	0	0	0	0	15	0	0	1	18
4	12	7	0	0	0	0	0	0	0	0	1	20
10	10	0	0	0	0	0	0	13	0	0	1	20
5	0	0	0	0	10	0	0	0	0	12	1	21
10	6	0	0	0	13	0	0	0	0	0	2	22	30
2	0	0	0	0	0	0	0	0	14	12	1	23
10	16	0	0	0	0	0	0	15	0	0	1	24
7	0	0	0	0	0	19	0	0	1	0	1	26
3	0	0	10	0	0	20	0	0	0	0	1	26
2	0	0	0	0	0	13	15	0	0	0	1	27
4	0	0	0	0	0	13	19	0	0	0	1	28
5	0	20	0	18	0	0	0	0	0	0	1	29
1	0	0	0	0	0	13	0	15	0	0	1	32
1	0	0	0	0	9	0	0	0	0	12	1	32
7	0	0	16	0	16	0	0	0	0	0	1	32
0	0	0	0	0	0	0	0	0	0	0	0
